(set-logic HORN)
(set-info :source |
    Benchmark: C_VC
    Output by Princess (http://www.philipp.ruemmer.org/princess.shtml)
|)
(set-info :status unsat)
(declare-heap Heap Addr HeapObject
 defObj
 ((HeapObject 0)) (
  (
   (O_Int (getInt Int))
   (O_UInt (getUInt Int))
   (O_Addr (getAddr Addr))
   (defObj)
  )
))
(declare-fun inv_main12 (Heap Int Int AddrRange AddrRange Int) Bool)
(declare-fun inv_main18 (Heap Int Int AddrRange AddrRange AddrRange Int AddrRange Int Int) Bool)
(declare-fun inv_main2 (Heap) Bool)
(declare-fun inv_main21 (Heap Int Int AddrRange AddrRange AddrRange Int AddrRange Int Int Int) Bool)
(declare-fun inv_main25 (Heap Int Int AddrRange AddrRange AddrRange Int AddrRange Int Int Int Int) Bool)
(declare-fun inv_main41 (Heap Int Int AddrRange AddrRange Int Int) Bool)
(declare-fun inv_main43 (Heap Int Int AddrRange AddrRange Int Int) Bool)
(declare-fun inv_main44 (Heap Int Int AddrRange AddrRange Int Int) Bool)
(declare-fun inv_main46 (Heap Int Int AddrRange AddrRange Int Int Int) Bool)
(declare-fun inv_main52 (Heap Int Int AddrRange AddrRange Int Int) Bool)
(declare-fun inv_main54 (Heap Int Int AddrRange AddrRange Int Int Int) Bool)
(declare-fun inv_main60 (Heap Int Int AddrRange AddrRange Int Int) Bool)
(declare-fun inv_main65 (Heap Int Int AddrRange AddrRange Int) Bool)
(declare-fun inv_main68 (Heap Int Int AddrRange AddrRange Int Int) Bool)
(declare-fun inv_main72 (Heap Int Int AddrRange AddrRange Int Int Int) Bool)
(declare-fun inv_main73 (Heap Int Int AddrRange AddrRange Int) Bool)
(declare-fun inv_main9 (Heap Int Int AddrRange AddrRange) Bool)
(assert (forall ((var0 Heap)) (or (not (= var0 emptyHeap)) (inv_main2 var0))))
(assert (forall ((var0 Int) (var1 Int) (var2 Int) (var3 Int) (var4 AddrRange) (var5 AddrRange) (var6 Int) (var7 Int) (var8 Heap)) (or (not (and (inv_main72 var8 var7 var6 var5 var4 var3 var2 var1) (and (and (or (not (<= 0 (+ (+ var7 (* (- 1) (+ var2 1))) (- 1)))) (not (<= 0 (+ (+ var6 (* (- 1) (+ var2 1))) (- 1))))) (and (is-O_UInt (read var8 (nthAddrRange var4 (+ var2 (* (- 1) var3))))) (not (= var1 (getUInt (read var8 (nthAddrRange var4 (+ var2 (* (- 1) var3))))))))) (= var0 (+ var3 1))))) (inv_main65 var8 var7 var6 var5 var4 var0))))
(assert (forall ((var0 Int) (var1 Int) (var2 Int) (var3 AddrRange) (var4 AddrRange) (var5 Int) (var6 Int) (var7 Heap)) (or (not (and (inv_main72 var7 var6 var5 var4 var3 var2 var1 var0) (and (or (not (<= 0 (+ (+ var6 (* (- 1) (+ var1 1))) (- 1)))) (not (<= 0 (+ (+ var5 (* (- 1) (+ var1 1))) (- 1))))) (and (is-O_UInt (read var7 (nthAddrRange var3 (+ var1 (* (- 1) var2))))) (= var0 (getUInt (read var7 (nthAddrRange var3 (+ var1 (* (- 1) var2)))))))))) (inv_main65 var7 var6 var5 var4 var3 var2))))
(assert (forall ((var0 Int) (var1 Int) (var2 AddrRange) (var3 AddrRange) (var4 Int) (var5 Int) (var6 Heap)) (or (not (and (inv_main12 var6 var5 var4 var3 var2 var1) (and (and (or (not (<= 0 (+ var5 (- 1)))) (not (<= 0 (+ var4 (- 1))))) (and (<= 0 (+ (+ var4 1) (* (- 1) var5))) (= var1 0))) (= var0 0)))) (inv_main65 var6 var5 var4 var3 var2 var0))))
(assert (forall ((var0 Int) (var1 Int) (var2 AddrRange) (var3 AddrRange) (var4 Int) (var5 Int) (var6 Int) (var7 Heap) (var8 Int) (var9 Int) (var10 AddrRange) (var11 AddrRange) (var12 Int) (var13 Int) (var14 Heap)) (or (not (and (inv_main41 var14 var13 var12 var11 var10 var9 var8) (and (and (is-O_UInt (read var14 (nthAddrRange var11 var8))) (is-O_UInt (read var14 (nthAddrRange var11 var8)))) (and (and (and (and (and (and (= var7 (write var14 (nthAddrRange var11 var8) (O_UInt var6))) (= var5 var13)) (= var4 var12)) (= var3 var11)) (= var2 var10)) (= var1 var9)) (= var0 var8))))) (inv_main43 var7 var5 var4 var3 var2 var1 var0))))
(assert (forall ((var0 Int) (var1 Int) (var2 Int) (var3 AddrRange) (var4 AddrRange) (var5 Int) (var6 Int) (var7 Heap)) (or (not (and (inv_main52 var7 var6 var5 var4 var3 var2 var1) (and (is-O_UInt (read var7 (nthAddrRange var4 var1))) (= var0 (getUInt (read var7 (nthAddrRange var4 var1))))))) (inv_main54 var7 var6 var5 var4 var3 var2 var1 var0))))
(assert (forall ((var0 Int) (var1 Int) (var2 Int) (var3 AddrRange) (var4 AddrRange) (var5 Int) (var6 Int) (var7 Heap)) (or (not (and (inv_main44 var7 var6 var5 var4 var3 var2 var1) (and (is-O_UInt (read var7 (nthAddrRange var4 var1))) (= var0 (getUInt (read var7 (nthAddrRange var4 var1))))))) (inv_main46 var7 var6 var5 var4 var3 var2 var1 var0))))
(assert (forall ((var0 AddrRange) (var1 AddrRange) (var2 Int) (var3 Int) (var4 Int) (var5 Heap) (var6 Int) (var7 Int) (var8 Int) (var9 Int) (var10 AddrRange) (var11 AddrRange) (var12 Int) (var13 Int) (var14 Heap)) (or (not (and (inv_main43 var14 var13 var12 var11 var10 var9 var8) (and (= var7 var6) (and (and (not (<= 0 (+ (+ var6 (* (- 1) var7)) (- 1)))) (and (is-O_UInt (read var14 (nthAddrRange var10 var8))) (is-O_UInt (read var14 (nthAddrRange var10 var8))))) (and (and (and (and (and (and (= var5 (write var14 (nthAddrRange var10 var8) (O_UInt var4))) (= var3 var13)) (= var2 var12)) (= var1 var11)) (= var0 var10)) (= var6 var9)) (= var7 var8)))))) (inv_main52 var5 var3 var2 var1 var0 var6 var7))))
(assert (forall ((var0 Int) (var1 Int) (var2 Int) (var3 AddrRange) (var4 AddrRange) (var5 Int) (var6 Int) (var7 Heap)) (or (not (and (inv_main68 var7 var6 var5 var4 var3 var2 var1) (and (is-O_UInt (read var7 (nthAddrRange var4 var1))) (= var0 (getUInt (read var7 (nthAddrRange var4 var1))))))) (inv_main72 var7 var6 var5 var4 var3 var2 var1 var0))))
(assert (forall ((var0 Int) (var1 Int) (var2 Int) (var3 Int) (var4 Int) (var5 AddrRange) (var6 Int) (var7 AddrRange) (var8 AddrRange) (var9 AddrRange) (var10 Int) (var11 Int) (var12 Heap)) (or (not (and (inv_main25 var12 var11 var10 var9 var8 var7 var6 var5 var4 var3 var2 var1) (and (and (not (= var3 0)) (and (is-O_Int (read var12 (nthAddrRange var5 (+ var2 (* (- 1) var3))))) (not (= var1 (getInt (read var12 (nthAddrRange var5 (+ var2 (* (- 1) var3))))))))) (= var0 0)))) (inv_main12 var12 var11 var10 var9 var8 var0))))
(assert (forall ((var0 Int) (var1 Int) (var2 Int) (var3 AddrRange) (var4 Int) (var5 AddrRange) (var6 AddrRange) (var7 AddrRange) (var8 Int) (var9 Int) (var10 Heap)) (or (not (and (inv_main18 var10 var9 var8 var7 var6 var5 var4 var3 var2 var1) (and (and (<= 0 (+ (+ var4 (* (- 1) var2)) (- 1))) (= var1 1)) (= var0 0)))) (inv_main12 var10 var9 var8 var7 var6 var0))))
(assert (forall ((var0 Int) (var1 Int) (var2 Int) (var3 AddrRange) (var4 Int) (var5 AddrRange) (var6 AddrRange) (var7 AddrRange) (var8 Int) (var9 Int) (var10 Heap)) (or (not (and (inv_main18 var10 var9 var8 var7 var6 var5 var4 var3 var2 var1) (and (or (not (<= 0 (+ (+ var4 (* (- 1) var2)) (- 1)))) (not (= var1 1))) (= var0 1)))) (inv_main12 var10 var9 var8 var7 var6 var0))))
(assert (forall ((var0 Int) (var1 Int) (var2 Int) (var3 Int) (var4 AddrRange) (var5 AddrRange) (var6 AddrRange) (var7 Int) (var8 Int) (var9 Int) (var10 Heap) (var11 Heap) (var12 Int) (var13 Int) (var14 Heap)) (or (not (and (inv_main2 var14) (and (and (and (and (and (<= 0 (+ (+ var13 (* (- 1) (+ var12 1))) (- 1))) (and (and (and (and (= var11 (newBatchHeap (batchAlloc var10 (O_Int var9) var8))) (= var13 var7)) (= var12 var8)) (= var6 var5)) (= var4 (newAddrRange (batchAlloc var10 (O_Int var9) var8))))) (and (and (and (= var10 (newBatchHeap (batchAlloc var14 (O_Int var3) var2))) (= var7 var2)) (= var8 var1)) (= var5 (newAddrRange (batchAlloc var14 (O_Int var3) var2))))) (<= 0 var1)) (<= 0 var2)) (= var0 0)))) (inv_main12 var11 var13 var12 var6 var4 var0))))
(assert (forall ((var0 AddrRange) (var1 AddrRange) (var2 Int) (var3 Int) (var4 Int) (var5 Heap) (var6 Int) (var7 Int) (var8 Int) (var9 Int) (var10 AddrRange) (var11 AddrRange) (var12 Int) (var13 Int) (var14 Heap)) (or (not (and (inv_main43 var14 var13 var12 var11 var10 var9 var8) (and (<= 0 (+ (+ var7 (* (- 1) var6)) (- 1))) (and (not (= var7 var6)) (and (and (not (<= 0 (+ (+ var6 (* (- 1) var7)) (- 1)))) (and (is-O_UInt (read var14 (nthAddrRange var10 var8))) (is-O_UInt (read var14 (nthAddrRange var10 var8))))) (and (and (and (and (and (and (= var5 (write var14 (nthAddrRange var10 var8) (O_UInt var4))) (= var3 var13)) (= var2 var12)) (= var1 var11)) (= var0 var10)) (= var6 var9)) (= var7 var8))))))) (inv_main60 var5 var3 var2 var1 var0 var6 var7))))
(assert (forall ((var0 Int) (var1 Int) (var2 Int) (var3 Int) (var4 Int) (var5 AddrRange) (var6 AddrRange) (var7 Int) (var8 Int) (var9 Heap)) (or (not (and (inv_main72 var9 var8 var7 var6 var5 var4 var3 var2) (and (and (and (and (<= 0 (+ (+ var8 (* (- 1) (+ var3 1))) (- 1))) (<= 0 (+ (+ var7 (* (- 1) (+ var3 1))) (- 1)))) (and (is-O_UInt (read var9 (nthAddrRange var5 (+ var3 (* (- 1) var4))))) (not (= var2 (getUInt (read var9 (nthAddrRange var5 (+ var3 (* (- 1) var4))))))))) (= var1 (+ var4 1))) (= var0 (+ var3 1))))) (inv_main68 var9 var8 var7 var6 var5 var1 var0))))
(assert (forall ((var0 Int) (var1 Int) (var2 Int) (var3 Int) (var4 AddrRange) (var5 AddrRange) (var6 Int) (var7 Int) (var8 Heap)) (or (not (and (inv_main72 var8 var7 var6 var5 var4 var3 var2 var1) (and (and (and (<= 0 (+ (+ var7 (* (- 1) (+ var2 1))) (- 1))) (<= 0 (+ (+ var6 (* (- 1) (+ var2 1))) (- 1)))) (and (is-O_UInt (read var8 (nthAddrRange var4 (+ var2 (* (- 1) var3))))) (= var1 (getUInt (read var8 (nthAddrRange var4 (+ var2 (* (- 1) var3)))))))) (= var0 (+ var2 1))))) (inv_main68 var8 var7 var6 var5 var4 var3 var0))))
(assert (forall ((var0 Int) (var1 Int) (var2 Int) (var3 AddrRange) (var4 AddrRange) (var5 Int) (var6 Int) (var7 Heap)) (or (not (and (inv_main12 var7 var6 var5 var4 var3 var2) (and (and (and (and (<= 0 (+ var6 (- 1))) (<= 0 (+ var5 (- 1)))) (and (<= 0 (+ (+ var5 1) (* (- 1) var6))) (= var2 0))) (= var1 0)) (= var0 0)))) (inv_main68 var7 var6 var5 var4 var3 var1 var0))))
(assert (forall ((var0 Int) (var1 Int) (var2 Int) (var3 AddrRange) (var4 AddrRange) (var5 Int) (var6 Int) (var7 Heap)) (or (not (and (inv_main9 var7 var6 var5 var4 var3) (and (and (and (and (<= 0 (+ var6 (- 1))) (<= 0 (+ var5 (- 1)))) (and (<= 0 (+ (+ var6 (* (- 1) var5)) (- 1))) (<= 0 var2))) (= var1 (+ var6 (- 1)))) (= var0 0)))) (inv_main41 var7 var6 var5 var4 var3 var1 var0))))
(assert (forall ((var0 Int) (var1 Int) (var2 AddrRange) (var3 AddrRange) (var4 Int) (var5 Int) (var6 Heap)) (or (not (and (inv_main9 var6 var5 var4 var3 var2) (and (and (and (<= 0 (+ var5 (- 1))) (<= 0 (+ var4 (- 1)))) (and (not (<= 0 (+ (+ var5 (* (- 1) var4)) (- 1)))) (<= 0 var1))) (= var0 0)))) (inv_main41 var6 var5 var4 var3 var2 var1 var0))))
(assert (forall ((var0 Int) (var1 Int) (var2 Int) (var3 AddrRange) (var4 AddrRange) (var5 Int) (var6 Int) (var7 Heap)) (or (not (and (inv_main60 var7 var6 var5 var4 var3 var2 var1) (and (and (and (<= 0 (+ (+ var6 (* (- 1) (+ var1 1))) (- 1))) (<= 0 (+ (+ var5 (* (- 1) (+ var1 1))) (- 1)))) (and (is-O_UInt (read var7 (nthAddrRange var4 var1))) (is-O_UInt (read var7 (nthAddrRange var3 (+ var1 (- 1))))))) (= var0 (+ var1 1))))) (inv_main41 var7 var6 var5 var4 var3 var2 var0))))
(assert (forall ((var0 Int) (var1 Int) (var2 AddrRange) (var3 AddrRange) (var4 Heap) (var5 Int) (var6 Int) (var7 Int) (var8 Int) (var9 Int) (var10 Int) (var11 Int) (var12 AddrRange) (var13 AddrRange) (var14 Int) (var15 Int) (var16 Heap)) (or (not (and (inv_main46 var16 var15 var14 var13 var12 var11 var10 var9) (and (and (and (<= 0 (+ (+ var8 (* (- 1) (+ var7 1))) (- 1))) (<= 0 (+ (+ var6 (* (- 1) (+ var7 1))) (- 1)))) (and (and (not (= var5 0)) (is-O_UInt (read var16 (nthAddrRange var12 var10)))) (and (and (and (and (and (and (and (= var4 var16) (= var8 var15)) (= var6 var14)) (= var3 var13)) (= var2 var12)) (= var1 var11)) (= var7 var10)) (or (and (= var9 (getUInt (read var16 (nthAddrRange var12 var10)))) (= var5 1)) (and (not (= var9 (getUInt (read var16 (nthAddrRange var12 var10))))) (= var5 0)))))) (= var0 (+ var7 1))))) (inv_main41 var4 var8 var6 var3 var2 var1 var0))))
(assert (forall ((var0 Int) (var1 Int) (var2 AddrRange) (var3 AddrRange) (var4 Heap) (var5 Int) (var6 Int) (var7 Int) (var8 Int) (var9 Int) (var10 Int) (var11 Int) (var12 AddrRange) (var13 AddrRange) (var14 Int) (var15 Int) (var16 Heap)) (or (not (and (inv_main54 var16 var15 var14 var13 var12 var11 var10 var9) (and (and (and (<= 0 (+ (+ var8 (* (- 1) (+ var7 1))) (- 1))) (<= 0 (+ (+ var6 (* (- 1) (+ var7 1))) (- 1)))) (and (and (not (= var5 0)) (is-O_UInt (read var16 (nthAddrRange var12 var10)))) (and (and (and (and (and (and (and (= var4 var16) (= var8 var15)) (= var6 var14)) (= var3 var13)) (= var2 var12)) (= var1 var11)) (= var7 var10)) (or (and (not (= var9 (getUInt (read var16 (nthAddrRange var12 var10))))) (= var5 1)) (and (= var9 (getUInt (read var16 (nthAddrRange var12 var10)))) (= var5 0)))))) (= var0 (+ var7 1))))) (inv_main41 var4 var8 var6 var3 var2 var1 var0))))
(assert (forall ((var0 Int) (var1 AddrRange) (var2 AddrRange) (var3 Int) (var4 Heap) (var5 Int) (var6 Int) (var7 Int) (var8 Int) (var9 Int) (var10 Int) (var11 AddrRange) (var12 AddrRange) (var13 Int) (var14 Int) (var15 Heap)) (or (not (and (inv_main43 var15 var14 var13 var12 var11 var10 var9) (and (and (and (<= 0 (+ (+ var8 (* (- 1) (+ var7 1))) (- 1))) (<= 0 (+ (+ var6 (* (- 1) (+ var7 1))) (- 1)))) (and (not (<= 0 (+ (+ var7 (* (- 1) var5)) (- 1)))) (and (not (= var7 var5)) (and (and (not (<= 0 (+ (+ var5 (* (- 1) var7)) (- 1)))) (and (is-O_UInt (read var15 (nthAddrRange var11 var9))) (is-O_UInt (read var15 (nthAddrRange var11 var9))))) (and (and (and (and (and (and (= var4 (write var15 (nthAddrRange var11 var9) (O_UInt var3))) (= var8 var14)) (= var6 var13)) (= var2 var12)) (= var1 var11)) (= var5 var10)) (= var7 var9)))))) (= var0 (+ var7 1))))) (inv_main41 var4 var8 var6 var2 var1 var5 var0))))
(assert (forall ((var0 Int) (var1 Int) (var2 Int) (var3 Int) (var4 AddrRange) (var5 Int) (var6 AddrRange) (var7 AddrRange) (var8 AddrRange) (var9 Int) (var10 Int) (var11 Heap)) (or (not (and (inv_main21 var11 var10 var9 var8 var7 var6 var5 var4 var3 var2 var1) (and (is-O_Int (read var11 (nthAddrRange var6 var1))) (= var0 (getInt (read var11 (nthAddrRange var6 var1))))))) (inv_main25 var11 var10 var9 var8 var7 var6 var5 var4 var3 var2 var1 var0))))
(assert (forall ((var0 AddrRange) (var1 AddrRange) (var2 Int) (var3 Int) (var4 Int) (var5 Heap) (var6 Int) (var7 Int) (var8 Int) (var9 Int) (var10 AddrRange) (var11 AddrRange) (var12 Int) (var13 Int) (var14 Heap)) (or (not (and (inv_main43 var14 var13 var12 var11 var10 var9 var8) (and (and (<= 0 (+ (+ var7 (* (- 1) var6)) (- 1))) (and (is-O_UInt (read var14 (nthAddrRange var10 var8))) (is-O_UInt (read var14 (nthAddrRange var10 var8))))) (and (and (and (and (and (and (= var5 (write var14 (nthAddrRange var10 var8) (O_UInt var4))) (= var3 var13)) (= var2 var12)) (= var1 var11)) (= var0 var10)) (= var7 var9)) (= var6 var8))))) (inv_main44 var5 var3 var2 var1 var0 var7 var6))))
(assert (forall ((var0 Int) (var1 Int) (var2 Int) (var3 Int) (var4 AddrRange) (var5 Int) (var6 AddrRange) (var7 AddrRange) (var8 AddrRange) (var9 Int) (var10 Int) (var11 Heap)) (or (not (and (inv_main25 var11 var10 var9 var8 var7 var6 var5 var4 var3 var2 var1 var0) (and (or (not (<= 0 (+ (+ var5 (* (- 1) (+ var1 1))) (- 1)))) (not (<= 0 (+ (+ var3 (* (- 1) (+ var1 1))) (- 1))))) (and (is-O_Int (read var11 (nthAddrRange var4 (+ var1 (* (- 1) var2))))) (= var0 (getInt (read var11 (nthAddrRange var4 (+ var1 (* (- 1) var2)))))))))) (inv_main18 var11 var10 var9 var8 var7 var6 var5 var4 var3 var2))))
(assert (forall ((var0 Int) (var1 Int) (var2 Int) (var3 Int) (var4 Int) (var5 AddrRange) (var6 Int) (var7 AddrRange) (var8 AddrRange) (var9 AddrRange) (var10 Int) (var11 Int) (var12 Heap)) (or (not (and (inv_main25 var12 var11 var10 var9 var8 var7 var6 var5 var4 var3 var2 var1) (and (and (or (not (<= 0 (+ (+ var6 (* (- 1) (+ var2 1))) (- 1)))) (not (<= 0 (+ (+ var4 (* (- 1) (+ var2 1))) (- 1))))) (and (= var3 0) (and (is-O_Int (read var12 (nthAddrRange var5 (+ var2 (* (- 1) var3))))) (not (= var1 (getInt (read var12 (nthAddrRange var5 (+ var2 (* (- 1) var3)))))))))) (= var0 1)))) (inv_main18 var12 var11 var10 var9 var8 var7 var6 var5 var4 var0))))
(assert (forall ((var0 Int) (var1 Int) (var2 Int) (var3 Int) (var4 AddrRange) (var5 AddrRange) (var6 AddrRange) (var7 Int) (var8 Int) (var9 Int) (var10 Heap) (var11 Heap) (var12 Int) (var13 Int) (var14 Heap)) (or (not (and (inv_main2 var14) (and (and (and (and (and (and (or (not (<= 0 (+ var13 (- 1)))) (not (<= 0 (+ var12 (- 1))))) (not (<= 0 (+ (+ var13 (* (- 1) (+ var12 1))) (- 1))))) (and (and (and (and (= var11 (newBatchHeap (batchAlloc var10 (O_Int var9) var8))) (= var13 var7)) (= var12 var8)) (= var6 var5)) (= var4 (newAddrRange (batchAlloc var10 (O_Int var9) var8))))) (and (and (and (= var10 (newBatchHeap (batchAlloc var14 (O_Int var3) var2))) (= var7 var2)) (= var8 var1)) (= var5 (newAddrRange (batchAlloc var14 (O_Int var3) var2))))) (<= 0 var1)) (<= 0 var2)) (= var0 0)))) (inv_main18 var11 var13 var12 var6 var4 var6 var13 var4 var12 var0))))
(assert (forall ((var0 Int) (var1 Int) (var2 Int) (var3 Int) (var4 Int) (var5 AddrRange) (var6 Int) (var7 AddrRange) (var8 AddrRange) (var9 AddrRange) (var10 Int) (var11 Int) (var12 Heap)) (or (not (and (inv_main25 var12 var11 var10 var9 var8 var7 var6 var5 var4 var3 var2 var1) (and (and (and (<= 0 (+ (+ var6 (* (- 1) (+ var2 1))) (- 1))) (<= 0 (+ (+ var4 (* (- 1) (+ var2 1))) (- 1)))) (and (is-O_Int (read var12 (nthAddrRange var5 (+ var2 (* (- 1) var3))))) (= var1 (getInt (read var12 (nthAddrRange var5 (+ var2 (* (- 1) var3)))))))) (= var0 (+ var2 1))))) (inv_main21 var12 var11 var10 var9 var8 var7 var6 var5 var4 var3 var0))))
(assert (forall ((var0 Int) (var1 Int) (var2 Int) (var3 Int) (var4 Int) (var5 Int) (var6 AddrRange) (var7 Int) (var8 AddrRange) (var9 AddrRange) (var10 AddrRange) (var11 Int) (var12 Int) (var13 Heap)) (or (not (and (inv_main25 var13 var12 var11 var10 var9 var8 var7 var6 var5 var4 var3 var2) (and (and (and (and (<= 0 (+ (+ var7 (* (- 1) (+ var3 1))) (- 1))) (<= 0 (+ (+ var5 (* (- 1) (+ var3 1))) (- 1)))) (and (= var4 0) (and (is-O_Int (read var13 (nthAddrRange var6 (+ var3 (* (- 1) var4))))) (not (= var2 (getInt (read var13 (nthAddrRange var6 (+ var3 (* (- 1) var4)))))))))) (= var1 1)) (= var0 (+ var3 1))))) (inv_main21 var13 var12 var11 var10 var9 var8 var7 var6 var5 var1 var0))))
(assert (forall ((var0 Int) (var1 Int) (var2 Int) (var3 Int) (var4 Int) (var5 AddrRange) (var6 AddrRange) (var7 AddrRange) (var8 Int) (var9 Int) (var10 Int) (var11 Heap) (var12 Heap) (var13 Int) (var14 Int) (var15 Heap)) (or (not (and (inv_main2 var15) (and (and (and (and (and (and (and (and (<= 0 (+ var14 (- 1))) (<= 0 (+ var13 (- 1)))) (not (<= 0 (+ (+ var14 (* (- 1) (+ var13 1))) (- 1))))) (and (and (and (and (= var12 (newBatchHeap (batchAlloc var11 (O_Int var10) var9))) (= var14 var8)) (= var13 var9)) (= var7 var6)) (= var5 (newAddrRange (batchAlloc var11 (O_Int var10) var9))))) (and (and (and (= var11 (newBatchHeap (batchAlloc var15 (O_Int var4) var3))) (= var8 var3)) (= var9 var2)) (= var6 (newAddrRange (batchAlloc var15 (O_Int var4) var3))))) (<= 0 var2)) (<= 0 var3)) (= var1 0)) (= var0 0)))) (inv_main21 var12 var14 var13 var7 var5 var7 var14 var5 var13 var1 var0))))
(assert (forall ((var0 Int) (var1 Int) (var2 AddrRange) (var3 AddrRange) (var4 Int) (var5 Int) (var6 Heap)) (or (not (and (inv_main65 var6 var5 var4 var3 var2 var1) (and (<= 0 (+ (+ var5 (* (- 1) var4)) (- 1))) (= var0 (+ var1 1))))) (inv_main73 var6 var5 var4 var3 var2 var0))))
(assert (forall ((var0 Int) (var1 AddrRange) (var2 AddrRange) (var3 Int) (var4 Int) (var5 Heap)) (or (not (and (inv_main65 var5 var4 var3 var2 var1 var0) (not (<= 0 (+ (+ var4 (* (- 1) var3)) (- 1)))))) (inv_main73 var5 var4 var3 var2 var1 var0))))
(assert (forall ((var0 Int) (var1 AddrRange) (var2 AddrRange) (var3 Int) (var4 Int) (var5 Heap)) (or (not (and (inv_main12 var5 var4 var3 var2 var1 var0) (not (= var0 0)))) (inv_main9 var5 var4 var3 var2 var1))))
(assert (forall ((var0 Int) (var1 Int) (var2 Int) (var3 AddrRange) (var4 Int) (var5 AddrRange) (var6 AddrRange) (var7 AddrRange) (var8 Int) (var9 Int) (var10 Heap)) (not (and (inv_main21 var10 var9 var8 var7 var6 var5 var4 var3 var2 var1 var0) (not (is-O_Int (read var10 (nthAddrRange var5 var0))))))))
(assert (forall ((var0 Int) (var1 Int) (var2 Int) (var3 AddrRange) (var4 Int) (var5 AddrRange) (var6 AddrRange) (var7 AddrRange) (var8 Int) (var9 Int) (var10 Heap)) (not (and (inv_main21 var10 var9 var8 var7 var6 var5 var4 var3 var2 var1 var0) (and (is-O_Int (read var10 (nthAddrRange var5 var0))) (not (within var5 (nthAddrRange var5 var0))))))))
(assert (forall ((var0 Int) (var1 Int) (var2 Int) (var3 Int) (var4 AddrRange) (var5 Int) (var6 AddrRange) (var7 AddrRange) (var8 AddrRange) (var9 Int) (var10 Int) (var11 Heap)) (not (and (inv_main25 var11 var10 var9 var8 var7 var6 var5 var4 var3 var2 var1 var0) (not (is-O_Int (read var11 (nthAddrRange var4 (+ var1 (* (- 1) var2))))))))))
(assert (forall ((var0 Int) (var1 Int) (var2 Int) (var3 Int) (var4 AddrRange) (var5 Int) (var6 AddrRange) (var7 AddrRange) (var8 AddrRange) (var9 Int) (var10 Int) (var11 Heap)) (not (and (inv_main25 var11 var10 var9 var8 var7 var6 var5 var4 var3 var2 var1 var0) (and (is-O_Int (read var11 (nthAddrRange var4 (+ var1 (* (- 1) var2))))) (not (within var4 (nthAddrRange var4 (+ var1 (* (- 1) var2))))))))))
(assert (forall ((var0 AddrRange) (var1 AddrRange) (var2 Int) (var3 Int) (var4 Heap)) (not (and (inv_main9 var4 var3 var2 var1 var0) (not (<= 0 (+ (+ var2 1) (* (- 1) var3))))))))
(assert (forall ((var0 Int) (var1 Int) (var2 AddrRange) (var3 AddrRange) (var4 Int) (var5 Int) (var6 Heap)) (not (and (inv_main41 var6 var5 var4 var3 var2 var1 var0) (not (is-O_UInt (read var6 (nthAddrRange var3 var0))))))))
(assert (forall ((var0 Int) (var1 Int) (var2 AddrRange) (var3 AddrRange) (var4 Int) (var5 Int) (var6 Heap)) (not (and (inv_main41 var6 var5 var4 var3 var2 var1 var0) (and (is-O_UInt (read var6 (nthAddrRange var3 var0))) (not (within var3 (nthAddrRange var3 var0))))))))
(assert (forall ((var0 Int) (var1 Int) (var2 AddrRange) (var3 AddrRange) (var4 Int) (var5 Int) (var6 Heap)) (not (and (inv_main41 var6 var5 var4 var3 var2 var1 var0) (and (is-O_UInt (read var6 (nthAddrRange var3 var0))) (not (is-O_UInt (read var6 (nthAddrRange var3 var0)))))))))
(assert (forall ((var0 Int) (var1 Int) (var2 AddrRange) (var3 AddrRange) (var4 Int) (var5 Int) (var6 Heap)) (not (and (inv_main43 var6 var5 var4 var3 var2 var1 var0) (not (is-O_UInt (read var6 (nthAddrRange var2 var0))))))))
(assert (forall ((var0 Int) (var1 Int) (var2 AddrRange) (var3 AddrRange) (var4 Int) (var5 Int) (var6 Heap)) (not (and (inv_main43 var6 var5 var4 var3 var2 var1 var0) (and (is-O_UInt (read var6 (nthAddrRange var2 var0))) (not (within var2 (nthAddrRange var2 var0))))))))
(assert (forall ((var0 Int) (var1 Int) (var2 AddrRange) (var3 AddrRange) (var4 Int) (var5 Int) (var6 Heap)) (not (and (inv_main43 var6 var5 var4 var3 var2 var1 var0) (and (is-O_UInt (read var6 (nthAddrRange var2 var0))) (not (is-O_UInt (read var6 (nthAddrRange var2 var0)))))))))
(assert (forall ((var0 Int) (var1 Int) (var2 AddrRange) (var3 AddrRange) (var4 Int) (var5 Int) (var6 Heap)) (not (and (inv_main44 var6 var5 var4 var3 var2 var1 var0) (not (is-O_UInt (read var6 (nthAddrRange var3 var0))))))))
(assert (forall ((var0 Int) (var1 Int) (var2 AddrRange) (var3 AddrRange) (var4 Int) (var5 Int) (var6 Heap)) (not (and (inv_main44 var6 var5 var4 var3 var2 var1 var0) (and (is-O_UInt (read var6 (nthAddrRange var3 var0))) (not (within var3 (nthAddrRange var3 var0))))))))
(assert (forall ((var0 Int) (var1 Int) (var2 Int) (var3 AddrRange) (var4 AddrRange) (var5 Int) (var6 Int) (var7 Heap)) (not (and (inv_main46 var7 var6 var5 var4 var3 var2 var1 var0) (not (is-O_UInt (read var7 (nthAddrRange var3 var1))))))))
(assert (forall ((var0 Int) (var1 Int) (var2 Int) (var3 AddrRange) (var4 AddrRange) (var5 Int) (var6 Int) (var7 Heap)) (not (and (inv_main46 var7 var6 var5 var4 var3 var2 var1 var0) (and (is-O_UInt (read var7 (nthAddrRange var3 var1))) (not (within var3 (nthAddrRange var3 var1))))))))
(assert (forall ((var0 Int) (var1 Int) (var2 AddrRange) (var3 AddrRange) (var4 Int) (var5 Int) (var6 Heap)) (not (and (inv_main52 var6 var5 var4 var3 var2 var1 var0) (not (is-O_UInt (read var6 (nthAddrRange var3 var0))))))))
(assert (forall ((var0 Int) (var1 Int) (var2 AddrRange) (var3 AddrRange) (var4 Int) (var5 Int) (var6 Heap)) (not (and (inv_main52 var6 var5 var4 var3 var2 var1 var0) (and (is-O_UInt (read var6 (nthAddrRange var3 var0))) (not (within var3 (nthAddrRange var3 var0))))))))
(assert (forall ((var0 Int) (var1 Int) (var2 Int) (var3 AddrRange) (var4 AddrRange) (var5 Int) (var6 Int) (var7 Heap)) (not (and (inv_main54 var7 var6 var5 var4 var3 var2 var1 var0) (not (is-O_UInt (read var7 (nthAddrRange var3 var1))))))))
(assert (forall ((var0 Int) (var1 Int) (var2 Int) (var3 AddrRange) (var4 AddrRange) (var5 Int) (var6 Int) (var7 Heap)) (not (and (inv_main54 var7 var6 var5 var4 var3 var2 var1 var0) (and (is-O_UInt (read var7 (nthAddrRange var3 var1))) (not (within var3 (nthAddrRange var3 var1))))))))
(assert (forall ((var0 Int) (var1 Int) (var2 AddrRange) (var3 AddrRange) (var4 Int) (var5 Int) (var6 Heap)) (not (and (inv_main60 var6 var5 var4 var3 var2 var1 var0) (not (is-O_UInt (read var6 (nthAddrRange var3 var0))))))))
(assert (forall ((var0 Int) (var1 Int) (var2 AddrRange) (var3 AddrRange) (var4 Int) (var5 Int) (var6 Heap)) (not (and (inv_main60 var6 var5 var4 var3 var2 var1 var0) (not (within var3 (nthAddrRange var3 var0)))))))
(assert (forall ((var0 Int) (var1 Int) (var2 AddrRange) (var3 AddrRange) (var4 Int) (var5 Int) (var6 Heap)) (not (and (inv_main60 var6 var5 var4 var3 var2 var1 var0) (not (is-O_UInt (read var6 (nthAddrRange var2 (+ var0 (- 1))))))))))
(assert (forall ((var0 Int) (var1 Int) (var2 AddrRange) (var3 AddrRange) (var4 Int) (var5 Int) (var6 Heap)) (not (and (inv_main60 var6 var5 var4 var3 var2 var1 var0) (not (within var2 (nthAddrRange var2 (+ var0 (- 1)))))))))
(assert (forall ((var0 Int) (var1 Int) (var2 AddrRange) (var3 AddrRange) (var4 Int) (var5 Int) (var6 Heap)) (not (and (inv_main60 var6 var5 var4 var3 var2 var1 var0) (not (is-O_UInt (read var6 (nthAddrRange var3 var0))))))))
(assert (forall ((var0 Int) (var1 Int) (var2 AddrRange) (var3 AddrRange) (var4 Int) (var5 Int) (var6 Heap)) (not (and (inv_main60 var6 var5 var4 var3 var2 var1 var0) (and (is-O_UInt (read var6 (nthAddrRange var3 var0))) (not (within var3 (nthAddrRange var3 var0))))))))
(assert (forall ((var0 Int) (var1 Int) (var2 AddrRange) (var3 AddrRange) (var4 Int) (var5 Int) (var6 Heap)) (not (and (inv_main60 var6 var5 var4 var3 var2 var1 var0) (and (is-O_UInt (read var6 (nthAddrRange var3 var0))) (not (is-O_UInt (read var6 (nthAddrRange var2 (+ var0 (- 1)))))))))))
(assert (forall ((var0 Int) (var1 Int) (var2 AddrRange) (var3 AddrRange) (var4 Int) (var5 Int) (var6 Heap)) (not (and (inv_main60 var6 var5 var4 var3 var2 var1 var0) (and (and (is-O_UInt (read var6 (nthAddrRange var3 var0))) (is-O_UInt (read var6 (nthAddrRange var2 (+ var0 (- 1)))))) (not (within var2 (nthAddrRange var2 (+ var0 (- 1))))))))))
(assert (forall ((var0 Int) (var1 Int) (var2 AddrRange) (var3 AddrRange) (var4 Int) (var5 Int) (var6 Heap)) (not (and (inv_main60 var6 var5 var4 var3 var2 var1 var0) (and (and (is-O_UInt (read var6 (nthAddrRange var3 var0))) (is-O_UInt (read var6 (nthAddrRange var2 (+ var0 (- 1)))))) (not (= (getUInt (read var6 (nthAddrRange var3 var0))) (getUInt (read var6 (nthAddrRange var2 (+ var0 (- 1))))))))))))
(assert (forall ((var0 Int) (var1 Int) (var2 AddrRange) (var3 AddrRange) (var4 Int) (var5 Int) (var6 Heap)) (not (and (inv_main68 var6 var5 var4 var3 var2 var1 var0) (not (is-O_UInt (read var6 (nthAddrRange var3 var0))))))))
(assert (forall ((var0 Int) (var1 Int) (var2 AddrRange) (var3 AddrRange) (var4 Int) (var5 Int) (var6 Heap)) (not (and (inv_main68 var6 var5 var4 var3 var2 var1 var0) (and (is-O_UInt (read var6 (nthAddrRange var3 var0))) (not (within var3 (nthAddrRange var3 var0))))))))
(assert (forall ((var0 Int) (var1 Int) (var2 Int) (var3 AddrRange) (var4 AddrRange) (var5 Int) (var6 Int) (var7 Heap)) (not (and (inv_main72 var7 var6 var5 var4 var3 var2 var1 var0) (not (is-O_UInt (read var7 (nthAddrRange var3 (+ var1 (* (- 1) var2))))))))))
(assert (forall ((var0 Int) (var1 Int) (var2 Int) (var3 AddrRange) (var4 AddrRange) (var5 Int) (var6 Int) (var7 Heap)) (not (and (inv_main72 var7 var6 var5 var4 var3 var2 var1 var0) (and (is-O_UInt (read var7 (nthAddrRange var3 (+ var1 (* (- 1) var2))))) (not (within var3 (nthAddrRange var3 (+ var1 (* (- 1) var2))))))))))
(assert (forall ((var0 Int) (var1 AddrRange) (var2 AddrRange) (var3 Int) (var4 Int) (var5 Heap)) (not (and (inv_main73 var5 var4 var3 var2 var1 var0) (not (<= 0 (+ (+ var0 (- 1)) (- 1))))))))
(check-sat)
